# Generated by ConicBenchmarkUtilities.jl
VER
2

OBJSENSE
MIN

VAR
413 1
F 413

INT
80
36
37
38
39
40
41
42
43
44
45
46
47
48
49
50
51
52
53
54
55
56
57
58
59
60
61
62
63
64
65
66
67
68
69
70
71
72
73
74
75
138
142
146
150
162
166
170
174
201
202
203
204
206
210
214
218
257
258
259
260
262
266
270
274
286
290
294
298
310
314
318
322
349
350
351
352
369
370
371
372

CON
1241 1193
L= 1
L= 1
L= 1
L= 1
L= 1
L= 1
L= 1
L= 1
L= 1
L= 1
L= 1
L= 1
L= 1
L= 1
L= 1
L= 1
L= 1
L= 1
L= 1
L= 1
L= 1
L= 1
L= 1
L= 1
L= 1
EXP 3
L+ 1
L+ 1
EXP 3
L+ 1
L+ 1
EXP 3
L+ 1
L+ 1
EXP 3
L+ 1
L+ 1
L= 1
L= 1
L= 1
L= 1
L= 1
L= 1
L= 1
L= 1
L= 1
L= 1
L= 1
L= 1
L= 1
L= 1
L= 1
L= 1
L+ 1
L+ 1
L+ 1
L+ 1
L+ 1
L+ 1
L+ 1
L+ 1
L+ 1
L+ 1
L+ 1
L+ 1
L+ 1
L+ 1
L+ 1
L+ 1
EXP 3
L+ 1
L+ 1
EXP 3
L+ 1
L+ 1
EXP 3
L+ 1
L+ 1
EXP 3
L+ 1
L+ 1
L= 1
L= 1
L= 1
L= 1
L= 1
L= 1
L= 1
L= 1
L= 1
L= 1
L= 1
L= 1
L= 1
L= 1
L= 1
L= 1
L+ 1
L+ 1
L+ 1
L+ 1
L+ 1
L+ 1
L+ 1
L+ 1
L+ 1
L+ 1
L+ 1
L+ 1
L+ 1
L+ 1
L+ 1
L+ 1
L= 1
L= 1
L= 1
L= 1
L= 1
L= 1
L= 1
L= 1
L= 1
L= 1
L= 1
L= 1
L= 1
L= 1
L= 1
L= 1
L= 1
L= 1
L= 1
L= 1
L+ 1
L+ 1
L+ 1
L+ 1
L+ 1
L+ 1
L+ 1
L+ 1
L+ 1
L+ 1
L+ 1
L+ 1
L+ 1
L+ 1
L+ 1
L+ 1
EXP 3
L+ 1
L+ 1
EXP 3
L+ 1
L+ 1
EXP 3
L+ 1
L+ 1
EXP 3
L+ 1
L+ 1
L= 1
L= 1
L= 1
L= 1
L= 1
L= 1
L= 1
L= 1
L= 1
L= 1
L= 1
L= 1
L= 1
L= 1
L= 1
L= 1
L+ 1
L+ 1
L+ 1
L+ 1
L+ 1
L+ 1
L+ 1
L+ 1
L+ 1
L+ 1
L+ 1
L+ 1
L+ 1
L+ 1
L+ 1
L+ 1
L= 1
L= 1
L= 1
L= 1
L= 1
L= 1
L= 1
L= 1
L= 1
L= 1
L= 1
L= 1
L= 1
L= 1
L= 1
L= 1
L= 1
L= 1
L= 1
L= 1
L= 1
L= 1
L= 1
L= 1
L= 1
L= 1
L= 1
L= 1
L= 1
L= 1
L= 1
L= 1
L+ 1
L+ 1
L+ 1
L+ 1
L+ 1
L+ 1
L+ 1
L+ 1
L+ 1
L+ 1
L+ 1
L+ 1
L+ 1
L+ 1
L+ 1
L+ 1
L+ 1
L+ 1
L+ 1
L+ 1
L+ 1
L+ 1
L+ 1
L+ 1
EXP 3
L+ 1
L+ 1
EXP 3
L+ 1
L+ 1
EXP 3
L+ 1
L+ 1
EXP 3
L+ 1
L+ 1
L= 1
L= 1
L= 1
L= 1
L= 1
L= 1
L= 1
L= 1
L= 1
L= 1
L= 1
L= 1
L= 1
L= 1
L= 1
L= 1
L+ 1
L+ 1
L+ 1
L+ 1
L+ 1
L+ 1
L+ 1
L+ 1
L+ 1
L+ 1
L+ 1
L+ 1
L+ 1
L+ 1
L+ 1
L+ 1
EXP 3
L+ 1
L+ 1
EXP 3
L+ 1
L+ 1
EXP 3
L+ 1
L+ 1
EXP 3
L+ 1
L+ 1
L= 1
L= 1
L= 1
L= 1
L= 1
L= 1
L= 1
L= 1
L= 1
L= 1
L= 1
L= 1
L= 1
L= 1
L= 1
L= 1
L+ 1
L+ 1
L+ 1
L+ 1
L+ 1
L+ 1
L+ 1
L+ 1
L+ 1
L+ 1
L+ 1
L+ 1
L+ 1
L+ 1
L+ 1
L+ 1
EXP 3
L+ 1
L+ 1
EXP 3
L+ 1
L+ 1
EXP 3
L+ 1
L+ 1
EXP 3
L+ 1
L+ 1
L= 1
L= 1
L= 1
L= 1
L= 1
L= 1
L= 1
L= 1
L= 1
L= 1
L= 1
L= 1
L= 1
L= 1
L= 1
L= 1
L+ 1
L+ 1
L+ 1
L+ 1
L+ 1
L+ 1
L+ 1
L+ 1
L+ 1
L+ 1
L+ 1
L+ 1
L+ 1
L+ 1
L+ 1
L+ 1
L= 1
L= 1
L= 1
L= 1
L= 1
L= 1
L= 1
L= 1
L= 1
L= 1
L= 1
L= 1
L= 1
L= 1
L= 1
L= 1
L= 1
L= 1
L= 1
L= 1
L+ 1
L+ 1
L+ 1
L+ 1
L+ 1
L+ 1
L+ 1
L+ 1
L+ 1
L+ 1
L+ 1
L+ 1
L+ 1
L+ 1
L+ 1
L+ 1
L= 1
L= 1
L= 1
L= 1
L= 1
L= 1
L= 1
L= 1
L= 1
L= 1
L= 1
L= 1
L= 1
L= 1
L= 1
L= 1
L= 1
L= 1
L= 1
L= 1
L+ 1
L+ 1
L+ 1
L+ 1
L+ 1
L+ 1
L+ 1
L+ 1
L+ 1
L+ 1
L+ 1
L+ 1
L+ 1
L+ 1
L+ 1
L+ 1
L= 1
L= 1
L= 1
L= 1
L= 1
L= 1
L= 1
L= 1
L= 1
L= 1
L= 1
L= 1
L= 1
L= 1
L= 1
L= 1
L= 1
L= 1
L= 1
L= 1
L= 1
L= 1
L= 1
L= 1
L= 1
L= 1
L= 1
L= 1
L= 1
L= 1
L= 1
L= 1
L= 1
L= 1
L= 1
L= 1
L= 1
L= 1
L= 1
L= 1
L+ 1
L+ 1
L+ 1
L+ 1
L+ 1
L+ 1
L+ 1
L+ 1
L+ 1
L+ 1
L+ 1
L+ 1
L+ 1
L+ 1
L+ 1
L+ 1
L+ 1
L+ 1
L+ 1
L+ 1
L+ 1
L+ 1
L+ 1
L+ 1
L+ 1
L+ 1
L+ 1
L+ 1
L+ 1
L+ 1
L+ 1
L+ 1
L+ 1
L+ 1
L+ 1
L+ 1
L+ 1
L+ 1
L+ 1
L+ 1
L+ 1
L+ 1
L+ 1
L+ 1
L+ 1
L+ 1
L+ 1
L+ 1
L+ 1
L+ 1
L+ 1
L+ 1
L+ 1
L+ 1
L+ 1
L+ 1
L+ 1
L+ 1
L+ 1
L+ 1
L+ 1
L+ 1
L+ 1
L+ 1
L+ 1
L+ 1
L+ 1
L+ 1
L+ 1
L+ 1
L+ 1
L+ 1
L+ 1
L+ 1
L+ 1
L+ 1
L+ 1
L+ 1
L+ 1
L+ 1
L+ 1
L+ 1
L+ 1
L+ 1
L+ 1
L+ 1
L+ 1
L+ 1
L+ 1
L+ 1
L+ 1
L+ 1
L+ 1
L+ 1
L+ 1
L+ 1
L+ 1
L+ 1
L+ 1
L+ 1
L+ 1
L+ 1
L+ 1
L+ 1
L+ 1
L+ 1
L+ 1
L+ 1
L+ 1
L+ 1
L+ 1
L+ 1
L+ 1
L+ 1
L+ 1
L+ 1
L+ 1
L+ 1
L+ 1
L+ 1
L+ 1
L+ 1
L+ 1
L+ 1
L+ 1
L+ 1
L+ 1
L+ 1
L+ 1
L+ 1
L+ 1
L+ 1
L+ 1
L+ 1
L+ 1
L+ 1
L+ 1
L+ 1
L+ 1
L+ 1
L+ 1
L+ 1
L+ 1
L+ 1
L+ 1
L+ 1
L+ 1
L+ 1
L+ 1
L+ 1
L+ 1
L+ 1
L+ 1
L+ 1
L+ 1
L+ 1
L+ 1
L+ 1
L+ 1
L+ 1
L+ 1
L+ 1
L+ 1
L+ 1
L+ 1
L+ 1
L+ 1
L+ 1
L+ 1
L+ 1
L+ 1
L+ 1
L+ 1
L+ 1
L+ 1
L+ 1
L+ 1
L+ 1
L+ 1
L+ 1
L+ 1
L+ 1
L+ 1
L+ 1
L+ 1
L+ 1
L+ 1
L+ 1
L+ 1
L+ 1
L+ 1
L+ 1
L+ 1
L+ 1
L+ 1
L+ 1
L+ 1
L+ 1
L+ 1
L+ 1
L+ 1
L+ 1
L+ 1
L+ 1
L+ 1
L+ 1
L+ 1
L+ 1
L+ 1
L+ 1
L+ 1
L+ 1
L+ 1
L+ 1
L+ 1
L+ 1
L+ 1
L+ 1
L+ 1
L+ 1
L= 1
L= 1
L= 1
L= 1
L+ 1
L+ 1
L+ 1
L+ 1
L+ 1
L+ 1
L+ 1
L+ 1
L+ 1
L+ 1
L+ 1
L+ 1
L+ 1
L+ 1
L+ 1
L+ 1
L+ 1
L+ 1
L+ 1
L+ 1
L+ 1
L+ 1
L+ 1
L+ 1
L+ 1
L+ 1
L+ 1
L+ 1
L+ 1
L+ 1
L+ 1
L+ 1
L+ 1
L+ 1
L+ 1
L+ 1
L+ 1
L+ 1
L+ 1
L+ 1
L+ 1
L+ 1
L+ 1
L+ 1
L+ 1
L+ 1
L+ 1
L+ 1
L+ 1
L+ 1
L+ 1
L+ 1
L+ 1
L+ 1
L+ 1
L+ 1
L+ 1
L+ 1
L+ 1
L+ 1
L+ 1
L+ 1
L+ 1
L+ 1
L+ 1
L+ 1
L+ 1
L+ 1
L+ 1
L+ 1
L+ 1
L+ 1
L+ 1
L+ 1
L+ 1
L+ 1
L+ 1
L+ 1
L+ 1
L+ 1
L+ 1
L+ 1
L+ 1
L+ 1
L+ 1
L+ 1
L+ 1
L+ 1
L+ 1
L+ 1
L+ 1
L+ 1
L+ 1
L+ 1
L+ 1
L+ 1
L+ 1
L+ 1
L+ 1
L+ 1
L+ 1
L+ 1
L+ 1
L+ 1
L+ 1
L+ 1
L+ 1
L+ 1
L+ 1
L+ 1
L+ 1
L+ 1
L+ 1
L+ 1
L+ 1
L+ 1
L+ 1
L+ 1
L+ 1
L+ 1
L+ 1
L+ 1
L+ 1
L+ 1
L+ 1
L+ 1
L+ 1
L+ 1
L+ 1
L+ 1
L+ 1
L+ 1
L+ 1
L+ 1
L+ 1
L+ 1
L+ 1
L+ 1
L+ 1
L+ 1
L+ 1
L+ 1
L+ 1
L+ 1
L+ 1
L+ 1
L+ 1
L+ 1
L+ 1
L+ 1
L+ 1
L+ 1
L+ 1
L+ 1
L+ 1
L+ 1
L+ 1
L+ 1
L+ 1
L+ 1
L+ 1
L+ 1
L+ 1
L+ 1
L+ 1
L+ 1
L+ 1
L+ 1
L+ 1
L+ 1
L+ 1
L+ 1
L+ 1
L+ 1
L+ 1
L+ 1
L+ 1
L+ 1
L+ 1
L+ 1
L+ 1
L+ 1
L+ 1
L+ 1
L+ 1
L+ 1
L+ 1
L+ 1
L+ 1
L+ 1
L+ 1
L+ 1
L+ 1
L+ 1
L+ 1
L+ 1
L+ 1
L+ 1
L+ 1
L+ 1
L+ 1
L+ 1
L+ 1
L+ 1
L+ 1
L+ 1
L+ 1
L+ 1
L+ 1
L+ 1
L+ 1
L+ 1
L+ 1
L+ 1
L+ 1
L+ 1
L+ 1
L+ 1
L+ 1
L+ 1
L+ 1
L+ 1
L+ 1
L+ 1
L+ 1
L+ 1
L+ 1
L+ 1
L+ 1
L+ 1
L+ 1
L+ 1
L+ 1
L+ 1
L+ 1
L+ 1
L+ 1
L+ 1
L+ 1
L+ 1
L+ 1
L+ 1
L+ 1
L+ 1
L+ 1
L+ 1
L+ 1
L+ 1
L+ 1
L+ 1
L+ 1
L+ 1
L+ 1
L+ 1
L+ 1
L+ 1
L+ 1
L+ 1
L+ 1
L+ 1
L+ 1
L+ 1
L+ 1
L+ 1
L+ 1
L+ 1
L+ 1
L+ 1
L+ 1
L+ 1
L+ 1
L+ 1
L+ 1
L+ 1
L+ 1
L+ 1
L+ 1
L+ 1
L+ 1
L+ 1
L+ 1
L+ 1
L+ 1
L+ 1
L+ 1
L+ 1
L+ 1
L+ 1
L+ 1
L+ 1
L+ 1
L+ 1
L+ 1
L+ 1
L+ 1
L+ 1
L+ 1
L+ 1
L+ 1
L+ 1
L+ 1
L+ 1
L+ 1
L+ 1
L+ 1
L+ 1
L+ 1
L+ 1
L+ 1
L+ 1
L+ 1
L+ 1
L+ 1
L+ 1
L+ 1
L+ 1
L+ 1
L+ 1
L+ 1
L+ 1
L+ 1
L+ 1
L+ 1
L+ 1
L+ 1
L+ 1
L+ 1
L+ 1
L+ 1
L+ 1
L+ 1
L+ 1
L+ 1
L+ 1
L+ 1
L+ 1
L+ 1
L+ 1
L+ 1
L+ 1
L+ 1
L+ 1
L+ 1
L+ 1
L+ 1
L+ 1
L+ 1
L+ 1
L+ 1
L+ 1
L+ 1
L+ 1
L+ 1
L+ 1
L+ 1
L+ 1
L+ 1
L+ 1
L+ 1
L+ 1
L+ 1
L+ 1
L+ 1
L+ 1
L+ 1
L+ 1
L+ 1
L+ 1
L+ 1
L+ 1
L+ 1
L+ 1
L+ 1
L+ 1
L+ 1
L+ 1
L+ 1
L+ 1
L+ 1
L+ 1
L+ 1
L+ 1
L+ 1
L+ 1
L+ 1
L+ 1
L+ 1
L+ 1
L+ 1
L+ 1
L+ 1
L+ 1
L+ 1
L+ 1
L+ 1
L+ 1
L+ 1
L+ 1
L+ 1
L+ 1
L+ 1
L+ 1
L+ 1
L+ 1
L+ 1
L+ 1
L+ 1
L+ 1
L+ 1
L+ 1
L+ 1
L+ 1
L+ 1
L+ 1
L+ 1
L+ 1
L+ 1
L+ 1
L+ 1
L+ 1
L+ 1
L+ 1
L+ 1
L+ 1
L+ 1
L+ 1
L+ 1
L+ 1
L+ 1
L+ 1
L+ 1
L+ 1
L+ 1
L+ 1
L+ 1
L+ 1
L+ 1
L+ 1
L+ 1
L+ 1
L+ 1
L+ 1
L+ 1
L+ 1
L+ 1
L+ 1
L+ 1
L+ 1
L+ 1
L+ 1
L+ 1
L+ 1
L+ 1
L+ 1
L+ 1
L+ 1
L+ 1
L+ 1
L+ 1
L+ 1
L+ 1
L+ 1
L+ 1
L+ 1
L+ 1
L+ 1
L+ 1
L+ 1
L+ 1
L+ 1
L+ 1
L+ 1
L+ 1
L+ 1
L+ 1
L+ 1

OBJACOORD
1
76 -1.0

ACOORD
2181
0 0 -1.0
1 0 1.0
805 0 1.0
806 0 -1.0
0 1 -1.0
2 1 1.0
807 1 1.0
808 1 -1.0
0 2 -1.0
3 2 1.0
809 2 1.0
810 2 -1.0
0 3 -1.0
4 3 1.0
811 3 1.0
812 3 -1.0
0 4 5.0
9 4 -1.0
833 4 1.0
0 5 10.0
10 5 -1.0
834 5 1.0
0 6 5.0
11 6 -1.0
835 6 1.0
0 7 10.0
12 7 -1.0
836 7 1.0
0 8 -2.0
241 8 1.0
853 8 1.0
854 8 -1.0
0 9 -1.0
242 9 1.0
855 9 1.0
856 9 -1.0
0 10 -2.0
243 10 1.0
857 10 1.0
858 10 -1.0
0 11 -1.0
244 11 1.0
859 11 1.0
860 11 -1.0
0 12 80.0
21 12 -1.0
889 12 1.0
0 13 90.0
22 13 -1.0
890 13 1.0
0 14 120.0
23 14 -1.0
891 14 1.0
0 15 100.0
24 15 -1.0
892 15 1.0
0 16 285.0
305 16 1.0
893 16 1.0
0 17 390.0
306 17 1.0
894 17 1.0
0 18 350.0
307 18 1.0
895 18 1.0
0 19 300.0
308 19 1.0
896 19 1.0
0 20 290.0
357 20 1.0
897 20 1.0
0 21 405.0
358 21 1.0
898 21 1.0
0 22 190.0
359 22 1.0
899 22 1.0
0 23 340.0
360 23 1.0
900 23 1.0
0 24 280.0
409 24 1.0
901 24 1.0
0 25 400.0
410 25 1.0
902 25 1.0
0 26 430.0
411 26 1.0
903 26 1.0
0 27 260.0
412 27 1.0
904 27 1.0
0 28 290.0
445 28 1.0
905 28 1.0
0 29 300.0
446 29 1.0
906 29 1.0
0 30 240.0
447 30 1.0
907 30 1.0
0 31 310.0
448 31 1.0
908 31 1.0
0 32 350.0
481 32 1.0
909 32 1.0
0 33 250.0
482 33 1.0
910 33 1.0
0 34 300.0
483 34 1.0
911 34 1.0
0 35 400.0
484 35 1.0
912 35 1.0
0 36 -5.0
501 36 5.0
601 36 -1.0
602 36 -1.0
603 36 -1.0
604 36 -1.0
607 36 -1.0
610 36 -1.0
721 36 1.0
1161 36 1.0
1162 36 -1.0
0 37 -4.0
502 37 4.0
601 37 -1.0
604 37 -1.0
605 37 -1.0
606 37 -1.0
608 37 -1.0
611 37 -1.0
722 37 1.0
1163 37 1.0
1164 37 -1.0
0 38 -6.0
503 38 6.0
602 38 -1.0
605 38 -1.0
607 38 -1.0
608 38 -1.0
609 38 -1.0
612 38 -1.0
723 38 1.0
1165 38 1.0
1166 38 -1.0
0 39 -3.0
504 39 3.0
603 39 -1.0
606 39 -1.0
609 39 -1.0
610 39 -1.0
611 39 -1.0
612 39 -1.0
724 39 1.0
1167 39 1.0
1168 39 -1.0
0 40 -8.0
505 40 8.0
613 40 -1.0
614 40 -1.0
615 40 -1.0
616 40 -1.0
619 40 -1.0
622 40 -1.0
725 40 1.0
1169 40 1.0
1170 40 -1.0
0 41 -7.0
506 41 7.0
613 41 -1.0
616 41 -1.0
617 41 -1.0
618 41 -1.0
620 41 -1.0
623 41 -1.0
726 41 1.0
1171 41 1.0
1172 41 -1.0
0 42 -6.0
507 42 6.0
614 42 -1.0
617 42 -1.0
619 42 -1.0
620 42 -1.0
621 42 -1.0
624 42 -1.0
727 42 1.0
1173 42 1.0
1174 42 -1.0
0 43 -5.0
508 43 5.0
615 43 -1.0
618 43 -1.0
621 43 -1.0
622 43 -1.0
623 43 -1.0
624 43 -1.0
728 43 1.0
1175 43 1.0
1176 43 -1.0
0 44 -6.0
509 44 6.0
625 44 -1.0
626 44 -1.0
627 44 -1.0
628 44 -1.0
631 44 -1.0
634 44 -1.0
729 44 1.0
1177 44 1.0
1178 44 -1.0
0 45 -9.0
510 45 9.0
625 45 -1.0
628 45 -1.0
629 45 -1.0
630 45 -1.0
632 45 -1.0
635 45 -1.0
730 45 1.0
1179 45 1.0
1180 45 -1.0
0 46 -4.0
511 46 4.0
626 46 -1.0
629 46 -1.0
631 46 -1.0
632 46 -1.0
633 46 -1.0
636 46 -1.0
731 46 1.0
1181 46 1.0
1182 46 -1.0
0 47 -3.0
512 47 3.0
627 47 -1.0
630 47 -1.0
633 47 -1.0
634 47 -1.0
635 47 -1.0
636 47 -1.0
732 47 1.0
1183 47 1.0
1184 47 -1.0
0 48 -10.0
513 48 10.0
637 48 -1.0
638 48 -1.0
639 48 -1.0
640 48 -1.0
643 48 -1.0
646 48 -1.0
733 48 1.0
1185 48 1.0
1186 48 -1.0
0 49 -9.0
514 49 9.0
637 49 -1.0
640 49 -1.0
641 49 -1.0
642 49 -1.0
644 49 -1.0
647 49 -1.0
734 49 1.0
1187 49 1.0
1188 49 -1.0
0 50 -5.0
515 50 5.0
638 50 -1.0
641 50 -1.0
643 50 -1.0
644 50 -1.0
645 50 -1.0
648 50 -1.0
735 50 1.0
1189 50 1.0
1190 50 -1.0
0 51 -6.0
516 51 6.0
639 51 -1.0
642 51 -1.0
645 51 -1.0
646 51 -1.0
647 51 -1.0
648 51 -1.0
736 51 1.0
1191 51 1.0
1192 51 -1.0
0 52 -6.0
517 52 6.0
649 52 -1.0
650 52 -1.0
651 52 -1.0
652 52 -1.0
655 52 -1.0
658 52 -1.0
737 52 1.0
1193 52 1.0
1194 52 -1.0
0 53 -10.0
518 53 10.0
649 53 -1.0
652 53 -1.0
653 53 -1.0
654 53 -1.0
656 53 -1.0
659 53 -1.0
738 53 1.0
1195 53 1.0
1196 53 -1.0
0 54 -6.0
519 54 6.0
650 54 -1.0
653 54 -1.0
655 54 -1.0
656 54 -1.0
657 54 -1.0
660 54 -1.0
739 54 1.0
1197 54 1.0
1198 54 -1.0
0 55 -9.0
520 55 9.0
651 55 -1.0
654 55 -1.0
657 55 -1.0
658 55 -1.0
659 55 -1.0
660 55 -1.0
740 55 1.0
1199 55 1.0
1200 55 -1.0
0 56 -7.0
521 56 7.0
661 56 -1.0
662 56 -1.0
663 56 -1.0
664 56 -1.0
667 56 -1.0
670 56 -1.0
741 56 1.0
1201 56 1.0
1202 56 -1.0
0 57 -7.0
522 57 7.0
661 57 -1.0
664 57 -1.0
665 57 -1.0
666 57 -1.0
668 57 -1.0
671 57 -1.0
742 57 1.0
1203 57 1.0
1204 57 -1.0
0 58 -4.0
523 58 4.0
662 58 -1.0
665 58 -1.0
667 58 -1.0
668 58 -1.0
669 58 -1.0
672 58 -1.0
743 58 1.0
1205 58 1.0
1206 58 -1.0
0 59 -2.0
524 59 2.0
663 59 -1.0
666 59 -1.0
669 59 -1.0
670 59 -1.0
671 59 -1.0
672 59 -1.0
744 59 1.0
1207 59 1.0
1208 59 -1.0
0 60 -4.0
525 60 4.0
673 60 -1.0
674 60 -1.0
675 60 -1.0
676 60 -1.0
679 60 -1.0
682 60 -1.0
745 60 1.0
1209 60 1.0
1210 60 -1.0
0 61 -3.0
526 61 3.0
673 61 -1.0
676 61 -1.0
677 61 -1.0
678 61 -1.0
680 61 -1.0
683 61 -1.0
746 61 1.0
1211 61 1.0
1212 61 -1.0
0 62 -2.0
527 62 2.0
674 62 -1.0
677 62 -1.0
679 62 -1.0
680 62 -1.0
681 62 -1.0
684 62 -1.0
747 62 1.0
1213 62 1.0
1214 62 -1.0
0 63 -8.0
528 63 8.0
675 63 -1.0
678 63 -1.0
681 63 -1.0
682 63 -1.0
683 63 -1.0
684 63 -1.0
748 63 1.0
1215 63 1.0
1216 63 -1.0
0 64 -5.0
529 64 5.0
685 64 -1.0
686 64 -1.0
687 64 -1.0
688 64 -1.0
691 64 -1.0
694 64 -1.0
749 64 1.0
1217 64 1.0
1218 64 -1.0
0 65 -6.0
530 65 6.0
685 65 -1.0
688 65 -1.0
689 65 -1.0
690 65 -1.0
692 65 -1.0
695 65 -1.0
750 65 1.0
1219 65 1.0
1220 65 -1.0
0 66 -7.0
531 66 7.0
686 66 -1.0
689 66 -1.0
691 66 -1.0
692 66 -1.0
693 66 -1.0
696 66 -1.0
751 66 1.0
1221 66 1.0
1222 66 -1.0
0 67 -4.0
532 67 4.0
687 67 -1.0
690 67 -1.0
693 67 -1.0
694 67 -1.0
695 67 -1.0
696 67 -1.0
752 67 1.0
1223 67 1.0
1224 67 -1.0
0 68 -2.0
533 68 2.0
697 68 -1.0
698 68 -1.0
699 68 -1.0
700 68 -1.0
703 68 -1.0
706 68 -1.0
753 68 1.0
1225 68 1.0
1226 68 -1.0
0 69 -5.0
534 69 5.0
697 69 -1.0
700 69 -1.0
701 69 -1.0
702 69 -1.0
704 69 -1.0
707 69 -1.0
754 69 1.0
1227 69 1.0
1228 69 -1.0
0 70 -2.0
535 70 2.0
698 70 -1.0
701 70 -1.0
703 70 -1.0
704 70 -1.0
705 70 -1.0
708 70 -1.0
755 70 1.0
1229 70 1.0
1230 70 -1.0
0 71 -6.0
536 71 6.0
699 71 -1.0
702 71 -1.0
705 71 -1.0
706 71 -1.0
707 71 -1.0
708 71 -1.0
756 71 1.0
1231 71 1.0
1232 71 -1.0
0 72 -4.0
537 72 4.0
709 72 -1.0
710 72 -1.0
711 72 -1.0
712 72 -1.0
715 72 -1.0
718 72 -1.0
757 72 1.0
1233 72 1.0
1234 72 -1.0
0 73 -7.0
538 73 7.0
709 73 -1.0
712 73 -1.0
713 73 -1.0
714 73 -1.0
716 73 -1.0
719 73 -1.0
758 73 1.0
1235 73 1.0
1236 73 -1.0
0 74 -4.0
539 74 4.0
710 74 -1.0
713 74 -1.0
715 74 -1.0
716 74 -1.0
717 74 -1.0
720 74 -1.0
759 74 1.0
1237 74 1.0
1238 74 -1.0
0 75 -7.0
540 75 7.0
711 75 -1.0
714 75 -1.0
717 75 -1.0
718 75 -1.0
719 75 -1.0
720 75 -1.0
760 75 1.0
1239 75 1.0
1240 75 -1.0
0 76 -1.0
1 77 -1.0
53 77 1.0
813 77 1.0
1 78 -1.0
105 78 1.0
817 78 1.0
2 79 -1.0
54 79 1.0
814 79 1.0
2 80 -1.0
106 80 1.0
818 80 1.0
3 81 -1.0
55 81 1.0
815 81 1.0
3 82 -1.0
107 82 1.0
819 82 1.0
4 83 -1.0
56 83 1.0
816 83 1.0
4 84 -1.0
108 84 1.0
820 84 1.0
5 85 -1.0
57 85 1.0
821 85 1.0
5 86 -1.0
109 86 1.0
825 86 1.0
5 87 1.0
9 87 1.0
829 87 1.0
6 88 -1.0
58 88 1.0
822 88 1.0
6 89 -1.0
110 89 1.0
826 89 1.0
6 90 1.0
10 90 1.0
830 90 1.0
7 91 -1.0
59 91 1.0
823 91 1.0
7 92 -1.0
111 92 1.0
827 92 1.0
7 93 1.0
11 93 1.0
831 93 1.0
8 94 -1.0
60 94 1.0
824 94 1.0
8 95 -1.0
112 95 1.0
828 95 1.0
8 96 1.0
12 96 1.0
832 96 1.0
9 97 -1.0
13 97 1.0
837 97 1.0
10 98 -1.0
14 98 1.0
838 98 1.0
11 99 -1.0
15 99 1.0
839 99 1.0
12 100 -1.0
16 100 1.0
840 100 1.0
13 101 -1.0
141 101 1.0
841 101 1.0
13 102 -1.0
193 102 1.0
845 102 1.0
13 103 -1.0
237 103 1.0
849 103 1.0
14 104 -1.0
142 104 1.0
842 104 1.0
14 105 -1.0
194 105 1.0
846 105 1.0
14 106 -1.0
238 106 1.0
850 106 1.0
15 107 -1.0
143 107 1.0
843 107 1.0
15 108 -1.0
195 108 1.0
847 108 1.0
15 109 -1.0
239 109 1.0
851 109 1.0
16 110 -1.0
144 110 1.0
844 110 1.0
16 111 -1.0
196 111 1.0
848 111 1.0
16 112 -1.0
240 112 1.0
852 112 1.0
17 113 1.0
145 113 1.0
861 113 1.0
17 114 -1.0
301 114 1.0
873 114 1.0
17 115 -1.0
353 115 1.0
877 115 1.0
18 116 1.0
146 116 1.0
862 116 1.0
18 117 -1.0
302 117 1.0
874 117 1.0
18 118 -1.0
354 118 1.0
878 118 1.0
19 119 1.0
147 119 1.0
863 119 1.0
19 120 -1.0
303 120 1.0
875 120 1.0
19 121 -1.0
355 121 1.0
879 121 1.0
20 122 1.0
148 122 1.0
864 122 1.0
20 123 -1.0
304 123 1.0
876 123 1.0
20 124 -1.0
356 124 1.0
880 124 1.0
21 125 1.0
245 125 1.0
869 125 1.0
21 126 -1.0
441 126 1.0
881 126 1.0
21 127 -1.0
477 127 1.0
885 127 1.0
22 128 1.0
246 128 1.0
870 128 1.0
22 129 -1.0
442 129 1.0
882 129 1.0
22 130 -1.0
478 130 1.0
886 130 1.0
23 131 1.0
247 131 1.0
871 131 1.0
23 132 -1.0
443 132 1.0
883 132 1.0
23 133 -1.0
479 133 1.0
887 133 1.0
24 134 1.0
248 134 1.0
872 134 1.0
24 135 -1.0
444 135 1.0
884 135 1.0
24 136 -1.0
480 136 1.0
888 136 1.0
27 137 -1.0
29 137 -1.0
25 138 1.0
26 138 1.0
28 138 1.0
61 138 40.0
65 138 -40.0
69 138 3.71357206670431
73 138 -3.71357206670431
541 138 -1.0
542 138 -1.0
543 138 -1.0
721 138 -1.0
722 138 1.0
723 138 1.0
724 138 1.0
761 138 1.0
773 138 1.0
777 138 1.0
781 138 1.0
1081 138 1.0
1082 138 -1.0
25 139 1.0
28 139 1.0
53 139 -1.0
61 139 -1.0
913 139 1.0
29 140 -1.0
57 140 -1.0
69 140 -1.0
929 140 1.0
32 141 -1.0
34 141 -1.0
30 142 1.0
31 142 1.0
33 142 1.0
62 142 40.0
66 142 -40.0
70 142 3.71357206670431
74 142 -3.71357206670431
541 142 1.0
544 142 -1.0
545 142 -1.0
722 142 -1.0
723 142 1.0
724 142 1.0
762 142 1.0
774 142 1.0
778 142 1.0
782 142 1.0
1083 142 1.0
1084 142 -1.0
30 143 1.0
33 143 1.0
54 143 -1.0
62 143 -1.0
914 143 1.0
34 144 -1.0
58 144 -1.0
70 144 -1.0
930 144 1.0
37 145 -1.0
39 145 -1.0
35 146 1.0
36 146 1.0
38 146 1.0
63 146 40.0
67 146 -40.0
71 146 3.71357206670431
75 146 -3.71357206670431
542 146 1.0
544 146 1.0
546 146 -1.0
723 146 -1.0
724 146 1.0
763 146 1.0
775 146 1.0
779 146 1.0
783 146 1.0
1085 146 1.0
1086 146 -1.0
35 147 1.0
38 147 1.0
55 147 -1.0
63 147 -1.0
915 147 1.0
39 148 -1.0
59 148 -1.0
71 148 -1.0
931 148 1.0
42 149 -1.0
44 149 -1.0
40 150 1.0
41 150 1.0
43 150 1.0
64 150 40.0
68 150 -40.0
72 150 3.71357206670431
76 150 -3.71357206670431
543 150 1.0
545 150 1.0
546 150 1.0
724 150 -1.0
764 150 1.0
776 150 1.0
780 150 1.0
784 150 1.0
1087 150 1.0
1088 150 -1.0
40 151 1.0
43 151 1.0
56 151 -1.0
64 151 -1.0
916 151 1.0
44 152 -1.0
60 152 -1.0
72 152 -1.0
932 152 1.0
45 153 1.0
53 153 -1.0
65 153 -1.0
917 153 1.0
46 154 1.0
54 154 -1.0
66 154 -1.0
918 154 1.0
47 155 1.0
55 155 -1.0
67 155 -1.0
919 155 1.0
48 156 1.0
56 156 -1.0
68 156 -1.0
920 156 1.0
49 157 1.0
57 157 -1.0
73 157 -1.0
933 157 1.0
50 158 1.0
58 158 -1.0
74 158 -1.0
934 158 1.0
51 159 1.0
59 159 -1.0
75 159 -1.0
935 159 1.0
52 160 1.0
60 160 -1.0
76 160 -1.0
936 160 1.0
79 161 -1.0
81 161 -1.2
77 162 1.0
78 162 1.0
80 162 1.0
113 162 40.0
117 162 -40.0
121 162 4.45628648004517
125 162 -4.45628648004517
547 162 -1.0
548 162 -1.0
549 162 -1.0
725 162 -1.0
726 162 1.0
727 162 1.0
728 162 1.0
761 162 1.0
773 162 1.0
777 162 1.0
781 162 1.0
1089 162 1.0
1090 162 -1.0
77 163 1.0
80 163 1.0
105 163 -1.0
113 163 -1.0
921 163 1.0
81 164 -1.0
109 164 -1.0
121 164 -1.0
937 164 1.0
84 165 -1.0
86 165 -1.2
82 166 1.0
83 166 1.0
85 166 1.0
114 166 40.0
118 166 -40.0
122 166 4.45628648004517
126 166 -4.45628648004517
547 166 1.0
550 166 -1.0
551 166 -1.0
726 166 -1.0
727 166 1.0
728 166 1.0
762 166 1.0
774 166 1.0
778 166 1.0
782 166 1.0
1091 166 1.0
1092 166 -1.0
82 167 1.0
85 167 1.0
106 167 -1.0
114 167 -1.0
922 167 1.0
86 168 -1.0
110 168 -1.0
122 168 -1.0
938 168 1.0
89 169 -1.0
91 169 -1.2
87 170 1.0
88 170 1.0
90 170 1.0
115 170 40.0
119 170 -40.0
123 170 4.45628648004517
127 170 -4.45628648004517
548 170 1.0
550 170 1.0
552 170 -1.0
727 170 -1.0
728 170 1.0
763 170 1.0
775 170 1.0
779 170 1.0
783 170 1.0
1093 170 1.0
1094 170 -1.0
87 171 1.0
90 171 1.0
107 171 -1.0
115 171 -1.0
923 171 1.0
91 172 -1.0
111 172 -1.0
123 172 -1.0
939 172 1.0
94 173 -1.0
96 173 -1.2
92 174 1.0
93 174 1.0
95 174 1.0
116 174 40.0
120 174 -40.0
124 174 4.45628648004517
128 174 -4.45628648004517
549 174 1.0
551 174 1.0
552 174 1.0
728 174 -1.0
764 174 1.0
776 174 1.0
780 174 1.0
784 174 1.0
1095 174 1.0
1096 174 -1.0
92 175 1.0
95 175 1.0
108 175 -1.0
116 175 -1.0
924 175 1.0
96 176 -1.0
112 176 -1.0
124 176 -1.0
940 176 1.0
97 177 1.0
105 177 -1.0
117 177 -1.0
925 177 1.0
98 178 1.0
106 178 -1.0
118 178 -1.0
926 178 1.0
99 179 1.0
107 179 -1.0
119 179 -1.0
927 179 1.0
100 180 1.0
108 180 -1.0
120 180 -1.0
928 180 1.0
101 181 1.0
109 181 -1.0
125 181 -1.0
941 181 1.0
102 182 1.0
110 182 -1.0
126 182 -1.0
942 182 1.0
103 183 1.0
111 183 -1.0
127 183 -1.0
943 183 1.0
104 184 1.0
112 184 -1.0
128 184 -1.0
944 184 1.0
129 185 -0.75
141 185 -1.0
149 185 -1.0
945 185 1.0
129 186 1.0
145 186 -1.0
157 186 -1.0
977 186 1.0
130 187 -0.75
142 187 -1.0
150 187 -1.0
946 187 1.0
130 188 1.0
146 188 -1.0
158 188 -1.0
978 188 1.0
131 189 -0.75
143 189 -1.0
151 189 -1.0
947 189 1.0
131 190 1.0
147 190 -1.0
159 190 -1.0
979 190 1.0
132 191 -0.75
144 191 -1.0
152 191 -1.0
948 191 1.0
132 192 1.0
148 192 -1.0
160 192 -1.0
980 192 1.0
133 193 1.0
141 193 -1.0
153 193 -1.0
949 193 1.0
134 194 1.0
142 194 -1.0
154 194 -1.0
950 194 1.0
135 195 1.0
143 195 -1.0
155 195 -1.0
951 195 1.0
136 196 1.0
144 196 -1.0
156 196 -1.0
952 196 1.0
137 197 1.0
145 197 -1.0
161 197 -1.0
981 197 1.0
138 198 1.0
146 198 -1.0
162 198 -1.0
982 198 1.0
139 199 1.0
147 199 -1.0
163 199 -1.0
983 199 1.0
140 200 1.0
148 200 -1.0
164 200 -1.0
984 200 1.0
149 201 4.45628648004517
153 201 -4.45628648004517
157 201 3.34221486003388
161 201 -3.34221486003388
553 201 -1.0
554 201 -1.0
555 201 -1.0
729 201 -1.0
730 201 1.0
731 201 1.0
732 201 1.0
765 201 -1.0
773 201 -1.0
785 201 1.0
789 201 1.0
1097 201 1.0
1098 201 -1.0
150 202 4.45628648004517
154 202 -4.45628648004517
158 202 3.34221486003388
162 202 -3.34221486003388
553 202 1.0
556 202 -1.0
557 202 -1.0
730 202 -1.0
731 202 1.0
732 202 1.0
766 202 -1.0
774 202 -1.0
786 202 1.0
790 202 1.0
1099 202 1.0
1100 202 -1.0
151 203 4.45628648004517
155 203 -4.45628648004517
159 203 3.34221486003388
163 203 -3.34221486003388
554 203 1.0
556 203 1.0
558 203 -1.0
731 203 -1.0
732 203 1.0
767 203 -1.0
775 203 -1.0
787 203 1.0
791 203 1.0
1101 203 1.0
1102 203 -1.0
152 204 4.45628648004517
156 204 -4.45628648004517
160 204 3.34221486003388
164 204 -3.34221486003388
555 204 1.0
557 204 1.0
558 204 1.0
732 204 -1.0
768 204 -1.0
776 204 -1.0
788 204 1.0
792 204 1.0
1103 204 1.0
1104 204 -1.0
167 205 -1.0
169 205 -1.5
165 206 1.0
166 206 1.0
168 206 1.0
201 206 4.45628648004517
205 206 -4.45628648004517
209 206 2.54515263975353
213 206 -2.54515263975353
559 206 -1.0
560 206 -1.0
561 206 -1.0
733 206 -1.0
734 206 1.0
735 206 1.0
736 206 1.0
769 206 -1.0
777 206 -1.0
793 206 1.0
1105 206 1.0
1106 206 -1.0
165 207 1.0
168 207 1.0
193 207 -1.0
201 207 -1.0
953 207 1.0
169 208 -1.0
197 208 -1.0
209 208 -1.0
985 208 1.0
172 209 -1.0
174 209 -1.5
170 210 1.0
171 210 1.0
173 210 1.0
202 210 4.45628648004517
206 210 -4.45628648004517
210 210 2.54515263975353
214 210 -2.54515263975353
559 210 1.0
562 210 -1.0
563 210 -1.0
734 210 -1.0
735 210 1.0
736 210 1.0
770 210 -1.0
778 210 -1.0
794 210 1.0
1107 210 1.0
1108 210 -1.0
170 211 1.0
173 211 1.0
194 211 -1.0
202 211 -1.0
954 211 1.0
174 212 -1.0
198 212 -1.0
210 212 -1.0
986 212 1.0
177 213 -1.0
179 213 -1.5
175 214 1.0
176 214 1.0
178 214 1.0
203 214 4.45628648004517
207 214 -4.45628648004517
211 214 2.54515263975353
215 214 -2.54515263975353
560 214 1.0
562 214 1.0
564 214 -1.0
735 214 -1.0
736 214 1.0
771 214 -1.0
779 214 -1.0
795 214 1.0
1109 214 1.0
1110 214 -1.0
175 215 1.0
178 215 1.0
195 215 -1.0
203 215 -1.0
955 215 1.0
179 216 -1.0
199 216 -1.0
211 216 -1.0
987 216 1.0
182 217 -1.0
184 217 -1.5
180 218 1.0
181 218 1.0
183 218 1.0
204 218 4.45628648004517
208 218 -4.45628648004517
212 218 2.54515263975353
216 218 -2.54515263975353
561 218 1.0
563 218 1.0
564 218 1.0
736 218 -1.0
772 218 -1.0
780 218 -1.0
796 218 1.0
1111 218 1.0
1112 218 -1.0
180 219 1.0
183 219 1.0
196 219 -1.0
204 219 -1.0
956 219 1.0
184 220 -1.0
200 220 -1.0
212 220 -1.0
988 220 1.0
185 221 1.0
193 221 -1.0
205 221 -1.0
957 221 1.0
186 222 1.0
194 222 -1.0
206 222 -1.0
958 222 1.0
187 223 1.0
195 223 -1.0
207 223 -1.0
959 223 1.0
188 224 1.0
196 224 -1.0
208 224 -1.0
960 224 1.0
189 225 1.0
197 225 -1.0
213 225 -1.0
993 225 1.0
190 226 1.0
198 226 -1.0
214 226 -1.0
994 226 1.0
191 227 1.0
199 227 -1.0
215 227 -1.0
995 227 1.0
192 228 1.0
200 228 -1.0
216 228 -1.0
996 228 1.0
197 229 1.0
405 229 1.0
865 229 1.0
198 230 1.0
406 230 1.0
866 230 1.0
199 231 1.0
407 231 1.0
867 231 1.0
200 232 1.0
408 232 1.0
868 232 1.0
217 233 -1.0
237 233 -1.0
249 233 -1.0
961 233 1.0
217 234 1.0
221 234 1.0
245 234 -1.0
265 234 -1.0
1001 234 1.0
218 235 -1.0
238 235 -1.0
250 235 -1.0
962 235 1.0
218 236 1.0
222 236 1.0
246 236 -1.0
266 236 -1.0
1002 236 1.0
219 237 -1.0
239 237 -1.0
251 237 -1.0
963 237 1.0
219 238 1.0
223 238 1.0
247 238 -1.0
267 238 -1.0
1003 238 1.0
220 239 -1.0
240 239 -1.0
252 239 -1.0
964 239 1.0
220 240 1.0
224 240 1.0
248 240 -1.0
268 240 -1.0
1004 240 1.0
221 241 -0.5
241 241 -1.0
257 241 -1.0
969 241 1.0
222 242 -0.5
242 242 -1.0
258 242 -1.0
970 242 1.0
223 243 -0.5
243 243 -1.0
259 243 -1.0
971 243 1.0
224 244 -0.5
244 244 -1.0
260 244 -1.0
972 244 1.0
225 245 1.0
237 245 -1.0
253 245 -1.0
965 245 1.0
226 246 1.0
238 246 -1.0
254 246 -1.0
966 246 1.0
227 247 1.0
239 247 -1.0
255 247 -1.0
967 247 1.0
228 248 1.0
240 248 -1.0
256 248 -1.0
968 248 1.0
229 249 1.0
241 249 -1.0
261 249 -1.0
973 249 1.0
230 250 1.0
242 250 -1.0
262 250 -1.0
974 250 1.0
231 251 1.0
243 251 -1.0
263 251 -1.0
975 251 1.0
232 252 1.0
244 252 -1.0
264 252 -1.0
976 252 1.0
233 253 1.0
245 253 -1.0
269 253 -1.0
1005 253 1.0
234 254 1.0
246 254 -1.0
270 254 -1.0
1006 254 1.0
235 255 1.0
247 255 -1.0
271 255 -1.0
1007 255 1.0
236 256 1.0
248 256 -1.0
272 256 -1.0
1008 256 1.0
249 257 4.45628648004517
253 257 -4.45628648004517
257 257 30.0
261 257 -30.0
265 257 15.0
269 257 -15.0
565 257 -1.0
566 257 -1.0
567 257 -1.0
737 257 -1.0
738 257 1.0
739 257 1.0
740 257 1.0
781 257 -1.0
797 257 1.0
801 257 1.0
1113 257 1.0
1114 257 -1.0
250 258 4.45628648004517
254 258 -4.45628648004517
258 258 30.0
262 258 -30.0
266 258 15.0
270 258 -15.0
565 258 1.0
568 258 -1.0
569 258 -1.0
738 258 -1.0
739 258 1.0
740 258 1.0
782 258 -1.0
798 258 1.0
802 258 1.0
1115 258 1.0
1116 258 -1.0
251 259 4.45628648004517
255 259 -4.45628648004517
259 259 30.0
263 259 -30.0
267 259 15.0
271 259 -15.0
566 259 1.0
568 259 1.0
570 259 -1.0
739 259 -1.0
740 259 1.0
783 259 -1.0
799 259 1.0
803 259 1.0
1117 259 1.0
1118 259 -1.0
252 260 4.45628648004517
256 260 -4.45628648004517
260 260 30.0
264 260 -30.0
268 260 15.0
272 260 -15.0
567 260 1.0
569 260 1.0
570 260 1.0
740 260 -1.0
784 260 -1.0
800 260 1.0
804 260 1.0
1119 260 1.0
1120 260 -1.0
275 261 -1.0
277 261 -1.25
273 262 1.0
274 262 1.0
276 262 1.0
309 262 3.34221486003388
313 262 -3.34221486003388
317 262 1.83548069293539
321 262 -1.83548069293539
571 262 -1.0
572 262 -1.0
573 262 -1.0
741 262 -1.0
742 262 1.0
743 262 1.0
744 262 1.0
765 262 1.0
785 262 -1.0
1121 262 1.0
1122 262 -1.0
273 263 1.0
276 263 1.0
301 263 -1.0
309 263 -1.0
1009 263 1.0
277 264 -1.0
305 264 -1.0
317 264 -1.0
1041 264 1.0
280 265 -1.0
282 265 -1.25
278 266 1.0
279 266 1.0
281 266 1.0
310 266 3.34221486003388
314 266 -3.34221486003388
318 266 1.83548069293539
322 266 -1.83548069293539
571 266 1.0
574 266 -1.0
575 266 -1.0
742 266 -1.0
743 266 1.0
744 266 1.0
766 266 1.0
786 266 -1.0
1123 266 1.0
1124 266 -1.0
278 267 1.0
281 267 1.0
302 267 -1.0
310 267 -1.0
1010 267 1.0
282 268 -1.0
306 268 -1.0
318 268 -1.0
1042 268 1.0
285 269 -1.0
287 269 -1.25
283 270 1.0
284 270 1.0
286 270 1.0
311 270 3.34221486003388
315 270 -3.34221486003388
319 270 1.83548069293539
323 270 -1.83548069293539
572 270 1.0
574 270 1.0
576 270 -1.0
743 270 -1.0
744 270 1.0
767 270 1.0
787 270 -1.0
1125 270 1.0
1126 270 -1.0
283 271 1.0
286 271 1.0
303 271 -1.0
311 271 -1.0
1011 271 1.0
287 272 -1.0
307 272 -1.0
319 272 -1.0
1043 272 1.0
290 273 -1.0
292 273 -1.25
288 274 1.0
289 274 1.0
291 274 1.0
312 274 3.34221486003388
316 274 -3.34221486003388
320 274 1.83548069293539
324 274 -1.83548069293539
573 274 1.0
575 274 1.0
576 274 1.0
744 274 -1.0
768 274 1.0
788 274 -1.0
1127 274 1.0
1128 274 -1.0
288 275 1.0
291 275 1.0
304 275 -1.0
312 275 -1.0
1012 275 1.0
292 276 -1.0
308 276 -1.0
320 276 -1.0
1044 276 1.0
293 277 1.0
301 277 -1.0
313 277 -1.0
1013 277 1.0
294 278 1.0
302 278 -1.0
314 278 -1.0
1014 278 1.0
295 279 1.0
303 279 -1.0
315 279 -1.0
1015 279 1.0
296 280 1.0
304 280 -1.0
316 280 -1.0
1016 280 1.0
297 281 1.0
305 281 -1.0
321 281 -1.0
1045 281 1.0
298 282 1.0
306 282 -1.0
322 282 -1.0
1046 282 1.0
299 283 1.0
307 283 -1.0
323 283 -1.0
1047 283 1.0
300 284 1.0
308 284 -1.0
324 284 -1.0
1048 284 1.0
327 285 -1.0
329 285 -0.9
325 286 1.0
326 286 1.0
328 286 1.0
361 286 3.34221486003388
365 286 -3.34221486003388
369 286 1.32154609891348
373 286 -1.32154609891348
577 286 -1.0
578 286 -1.0
579 286 -1.0
745 286 -1.0
746 286 1.0
747 286 1.0
748 286 1.0
765 286 1.0
789 286 -1.0
1129 286 1.0
1130 286 -1.0
325 287 1.0
328 287 1.0
353 287 -1.0
361 287 -1.0
1017 287 1.0
329 288 -1.0
357 288 -1.0
369 288 -1.0
1049 288 1.0
332 289 -1.0
334 289 -0.9
330 290 1.0
331 290 1.0
333 290 1.0
362 290 3.34221486003388
366 290 -3.34221486003388
370 290 1.32154609891348
374 290 -1.32154609891348
577 290 1.0
580 290 -1.0
581 290 -1.0
746 290 -1.0
747 290 1.0
748 290 1.0
766 290 1.0
790 290 -1.0
1131 290 1.0
1132 290 -1.0
330 291 1.0
333 291 1.0
354 291 -1.0
362 291 -1.0
1018 291 1.0
334 292 -1.0
358 292 -1.0
370 292 -1.0
1050 292 1.0
337 293 -1.0
339 293 -0.9
335 294 1.0
336 294 1.0
338 294 1.0
363 294 3.34221486003388
367 294 -3.34221486003388
371 294 1.32154609891348
375 294 -1.32154609891348
578 294 1.0
580 294 1.0
582 294 -1.0
747 294 -1.0
748 294 1.0
767 294 1.0
791 294 -1.0
1133 294 1.0
1134 294 -1.0
335 295 1.0
338 295 1.0
355 295 -1.0
363 295 -1.0
1019 295 1.0
339 296 -1.0
359 296 -1.0
371 296 -1.0
1051 296 1.0
342 297 -1.0
344 297 -0.9
340 298 1.0
341 298 1.0
343 298 1.0
364 298 3.34221486003388
368 298 -3.34221486003388
372 298 1.32154609891348
376 298 -1.32154609891348
579 298 1.0
581 298 1.0
582 298 1.0
748 298 -1.0
768 298 1.0
792 298 -1.0
1135 298 1.0
1136 298 -1.0
340 299 1.0
343 299 1.0
356 299 -1.0
364 299 -1.0
1020 299 1.0
344 300 -1.0
360 300 -1.0
372 300 -1.0
1052 300 1.0
345 301 1.0
353 301 -1.0
365 301 -1.0
1021 301 1.0
346 302 1.0
354 302 -1.0
366 302 -1.0
1022 302 1.0
347 303 1.0
355 303 -1.0
367 303 -1.0
1023 303 1.0
348 304 1.0
356 304 -1.0
368 304 -1.0
1024 304 1.0
349 305 1.0
357 305 -1.0
373 305 -1.0
1053 305 1.0
350 306 1.0
358 306 -1.0
374 306 -1.0
1054 306 1.0
351 307 1.0
359 307 -1.0
375 307 -1.0
1055 307 1.0
352 308 1.0
360 308 -1.0
376 308 -1.0
1056 308 1.0
379 309 -1.0
381 309 -1.0
377 310 1.0
378 310 1.0
380 310 1.0
413 310 2.54515263975353
417 310 -2.54515263975353
421 310 1.26558121681553
425 310 -1.26558121681553
583 310 -1.0
584 310 -1.0
585 310 -1.0
749 310 -1.0
750 310 1.0
751 310 1.0
752 310 1.0
769 310 1.0
793 310 -1.0
1137 310 1.0
1138 310 -1.0
377 311 1.0
380 311 1.0
405 311 -1.0
413 311 -1.0
989 311 1.0
381 312 -1.0
409 312 -1.0
421 312 -1.0
1057 312 1.0
384 313 -1.0
386 313 -1.0
382 314 1.0
383 314 1.0
385 314 1.0
414 314 2.54515263975353
418 314 -2.54515263975353
422 314 1.26558121681553
426 314 -1.26558121681553
583 314 1.0
586 314 -1.0
587 314 -1.0
750 314 -1.0
751 314 1.0
752 314 1.0
770 314 1.0
794 314 -1.0
1139 314 1.0
1140 314 -1.0
382 315 1.0
385 315 1.0
406 315 -1.0
414 315 -1.0
990 315 1.0
386 316 -1.0
410 316 -1.0
422 316 -1.0
1058 316 1.0
389 317 -1.0
391 317 -1.0
387 318 1.0
388 318 1.0
390 318 1.0
415 318 2.54515263975353
419 318 -2.54515263975353
423 318 1.26558121681553
427 318 -1.26558121681553
584 318 1.0
586 318 1.0
588 318 -1.0
751 318 -1.0
752 318 1.0
771 318 1.0
795 318 -1.0
1141 318 1.0
1142 318 -1.0
387 319 1.0
390 319 1.0
407 319 -1.0
415 319 -1.0
991 319 1.0
391 320 -1.0
411 320 -1.0
423 320 -1.0
1059 320 1.0
394 321 -1.0
396 321 -1.0
392 322 1.0
393 322 1.0
395 322 1.0
416 322 2.54515263975353
420 322 -2.54515263975353
424 322 1.26558121681553
428 322 -1.26558121681553
585 322 1.0
587 322 1.0
588 322 1.0
752 322 -1.0
772 322 1.0
796 322 -1.0
1143 322 1.0
1144 322 -1.0
392 323 1.0
395 323 1.0
408 323 -1.0
416 323 -1.0
992 323 1.0
396 324 -1.0
412 324 -1.0
424 324 -1.0
1060 324 1.0
397 325 1.0
405 325 -1.0
417 325 -1.0
997 325 1.0
398 326 1.0
406 326 -1.0
418 326 -1.0
998 326 1.0
399 327 1.0
407 327 -1.0
419 327 -1.0
999 327 1.0
400 328 1.0
408 328 -1.0
420 328 -1.0
1000 328 1.0
401 329 1.0
409 329 -1.0
425 329 -1.0
1061 329 1.0
402 330 1.0
410 330 -1.0
426 330 -1.0
1062 330 1.0
403 331 1.0
411 331 -1.0
427 331 -1.0
1063 331 1.0
404 332 1.0
412 332 -1.0
428 332 -1.0
1064 332 1.0
429 333 -0.9
441 333 -1.0
449 333 -1.0
1025 333 1.0
429 334 1.0
445 334 -1.0
457 334 -1.0
1065 334 1.0
430 335 -0.9
442 335 -1.0
450 335 -1.0
1026 335 1.0
430 336 1.0
446 336 -1.0
458 336 -1.0
1066 336 1.0
431 337 -0.9
443 337 -1.0
451 337 -1.0
1027 337 1.0
431 338 1.0
447 338 -1.0
459 338 -1.0
1067 338 1.0
432 339 -0.9
444 339 -1.0
452 339 -1.0
1028 339 1.0
432 340 1.0
448 340 -1.0
460 340 -1.0
1068 340 1.0
433 341 1.0
441 341 -1.0
453 341 -1.0
1029 341 1.0
434 342 1.0
442 342 -1.0
454 342 -1.0
1030 342 1.0
435 343 1.0
443 343 -1.0
455 343 -1.0
1031 343 1.0
436 344 1.0
444 344 -1.0
456 344 -1.0
1032 344 1.0
437 345 1.0
445 345 -1.0
461 345 -1.0
1069 345 1.0
438 346 1.0
446 346 -1.0
462 346 -1.0
1070 346 1.0
439 347 1.0
447 347 -1.0
463 347 -1.0
1071 347 1.0
440 348 1.0
448 348 -1.0
464 348 -1.0
1072 348 1.0
449 349 15.0
453 349 -15.0
457 349 13.5
461 349 -13.5
589 349 -1.0
590 349 -1.0
591 349 -1.0
753 349 -1.0
754 349 1.0
755 349 1.0
756 349 1.0
797 349 -1.0
1145 349 1.0
1146 349 -1.0
450 350 15.0
454 350 -15.0
458 350 13.5
462 350 -13.5
589 350 1.0
592 350 -1.0
593 350 -1.0
754 350 -1.0
755 350 1.0
756 350 1.0
798 350 -1.0
1147 350 1.0
1148 350 -1.0
451 351 15.0
455 351 -15.0
459 351 13.5
463 351 -13.5
590 351 1.0
592 351 1.0
594 351 -1.0
755 351 -1.0
756 351 1.0
799 351 -1.0
1149 351 1.0
1150 351 -1.0
452 352 15.0
456 352 -15.0
460 352 13.5
464 352 -13.5
591 352 1.0
593 352 1.0
594 352 1.0
756 352 -1.0
800 352 -1.0
1151 352 1.0
1152 352 -1.0
465 353 -0.6
477 353 -1.0
485 353 -1.0
1033 353 1.0
465 354 1.0
481 354 -1.0
493 354 -1.0
1073 354 1.0
466 355 -0.6
478 355 -1.0
486 355 -1.0
1034 355 1.0
466 356 1.0
482 356 -1.0
494 356 -1.0
1074 356 1.0
467 357 -0.6
479 357 -1.0
487 357 -1.0
1035 357 1.0
467 358 1.0
483 358 -1.0
495 358 -1.0
1075 358 1.0
468 359 -0.6
480 359 -1.0
488 359 -1.0
1036 359 1.0
468 360 1.0
484 360 -1.0
496 360 -1.0
1076 360 1.0
469 361 1.0
477 361 -1.0
489 361 -1.0
1037 361 1.0
470 362 1.0
478 362 -1.0
490 362 -1.0
1038 362 1.0
471 363 1.0
479 363 -1.0
491 363 -1.0
1039 363 1.0
472 364 1.0
480 364 -1.0
492 364 -1.0
1040 364 1.0
473 365 1.0
481 365 -1.0
497 365 -1.0
1077 365 1.0
474 366 1.0
482 366 -1.0
498 366 -1.0
1078 366 1.0
475 367 1.0
483 367 -1.0
499 367 -1.0
1079 367 1.0
476 368 1.0
484 368 -1.0
500 368 -1.0
1080 368 1.0
485 369 15.0
489 369 -15.0
493 369 9.0
497 369 -9.0
595 369 -1.0
596 369 -1.0
597 369 -1.0
757 369 -1.0
758 369 1.0
759 369 1.0
760 369 1.0
801 369 -1.0
1153 369 1.0
1154 369 -1.0
486 370 15.0
490 370 -15.0
494 370 9.0
498 370 -9.0
595 370 1.0
598 370 -1.0
599 370 -1.0
758 370 -1.0
759 370 1.0
760 370 1.0
802 370 -1.0
1155 370 1.0
1156 370 -1.0
487 371 15.0
491 371 -15.0
495 371 9.0
499 371 -9.0
596 371 1.0
598 371 1.0
600 371 -1.0
759 371 -1.0
760 371 1.0
803 371 -1.0
1157 371 1.0
1158 371 -1.0
488 372 15.0
492 372 -15.0
496 372 9.0
500 372 -9.0
597 372 1.0
599 372 1.0
600 372 1.0
760 372 -1.0
804 372 -1.0
1159 372 1.0
1160 372 -1.0
501 373 1.0
502 374 1.0
503 375 1.0
504 376 1.0
505 377 1.0
506 378 1.0
507 379 1.0
508 380 1.0
509 381 1.0
510 382 1.0
511 383 1.0
512 384 1.0
513 385 1.0
514 386 1.0
515 387 1.0
516 388 1.0
517 389 1.0
518 390 1.0
519 391 1.0
520 392 1.0
521 393 1.0
522 394 1.0
523 395 1.0
524 396 1.0
525 397 1.0
526 398 1.0
527 399 1.0
528 400 1.0
529 401 1.0
530 402 1.0
531 403 1.0
532 404 1.0
533 405 1.0
534 406 1.0
535 407 1.0
536 408 1.0
537 409 1.0
538 410 1.0
539 411 1.0
540 412 1.0

BCOORD
296
65 40.0
66 40.0
67 40.0
68 40.0
73 3.71357206670431
74 3.71357206670431
75 3.71357206670431
76 3.71357206670431
117 40.0
118 40.0
119 40.0
120 40.0
125 4.45628648004517
126 4.45628648004517
127 4.45628648004517
128 4.45628648004517
153 4.45628648004517
154 4.45628648004517
155 4.45628648004517
156 4.45628648004517
161 3.34221486003388
162 3.34221486003388
163 3.34221486003388
164 3.34221486003388
205 4.45628648004517
206 4.45628648004517
207 4.45628648004517
208 4.45628648004517
213 2.54515263975353
214 2.54515263975353
215 2.54515263975353
216 2.54515263975353
253 4.45628648004517
254 4.45628648004517
255 4.45628648004517
256 4.45628648004517
261 30.0
262 30.0
263 30.0
264 30.0
269 15.0
270 15.0
271 15.0
272 15.0
313 3.34221486003388
314 3.34221486003388
315 3.34221486003388
316 3.34221486003388
321 1.83548069293539
322 1.83548069293539
323 1.83548069293539
324 1.83548069293539
365 3.34221486003388
366 3.34221486003388
367 3.34221486003388
368 3.34221486003388
373 1.32154609891348
374 1.32154609891348
375 1.32154609891348
376 1.32154609891348
417 2.54515263975353
418 2.54515263975353
419 2.54515263975353
420 2.54515263975353
425 1.26558121681553
426 1.26558121681553
427 1.26558121681553
428 1.26558121681553
453 15.0
454 15.0
455 15.0
456 15.0
461 13.5
462 13.5
463 13.5
464 13.5
489 15.0
490 15.0
491 15.0
492 15.0
497 9.0
498 9.0
499 9.0
500 9.0
601 1.0
602 1.0
603 1.0
604 1.0
605 1.0
606 1.0
607 1.0
608 1.0
609 1.0
610 1.0
611 1.0
612 1.0
613 1.0
614 1.0
615 1.0
616 1.0
617 1.0
618 1.0
619 1.0
620 1.0
621 1.0
622 1.0
623 1.0
624 1.0
625 1.0
626 1.0
627 1.0
628 1.0
629 1.0
630 1.0
631 1.0
632 1.0
633 1.0
634 1.0
635 1.0
636 1.0
637 1.0
638 1.0
639 1.0
640 1.0
641 1.0
642 1.0
643 1.0
644 1.0
645 1.0
646 1.0
647 1.0
648 1.0
649 1.0
650 1.0
651 1.0
652 1.0
653 1.0
654 1.0
655 1.0
656 1.0
657 1.0
658 1.0
659 1.0
660 1.0
661 1.0
662 1.0
663 1.0
664 1.0
665 1.0
666 1.0
667 1.0
668 1.0
669 1.0
670 1.0
671 1.0
672 1.0
673 1.0
674 1.0
675 1.0
676 1.0
677 1.0
678 1.0
679 1.0
680 1.0
681 1.0
682 1.0
683 1.0
684 1.0
685 1.0
686 1.0
687 1.0
688 1.0
689 1.0
690 1.0
691 1.0
692 1.0
693 1.0
694 1.0
695 1.0
696 1.0
697 1.0
698 1.0
699 1.0
700 1.0
701 1.0
702 1.0
703 1.0
704 1.0
705 1.0
706 1.0
707 1.0
708 1.0
709 1.0
710 1.0
711 1.0
712 1.0
713 1.0
714 1.0
715 1.0
716 1.0
717 1.0
718 1.0
719 1.0
720 1.0
761 -1.0
762 -1.0
763 -1.0
764 -1.0
806 40.0
808 40.0
810 40.0
812 40.0
854 30.0
856 30.0
858 30.0
860 30.0
1082 1.0
1084 1.0
1086 1.0
1088 1.0
1090 1.0
1092 1.0
1094 1.0
1096 1.0
1098 1.0
1100 1.0
1102 1.0
1104 1.0
1106 1.0
1108 1.0
1110 1.0
1112 1.0
1114 1.0
1116 1.0
1118 1.0
1120 1.0
1122 1.0
1124 1.0
1126 1.0
1128 1.0
1130 1.0
1132 1.0
1134 1.0
1136 1.0
1138 1.0
1140 1.0
1142 1.0
1144 1.0
1146 1.0
1148 1.0
1150 1.0
1152 1.0
1154 1.0
1156 1.0
1158 1.0
1160 1.0
1162 1.0
1164 1.0
1166 1.0
1168 1.0
1170 1.0
1172 1.0
1174 1.0
1176 1.0
1178 1.0
1180 1.0
1182 1.0
1184 1.0
1186 1.0
1188 1.0
1190 1.0
1192 1.0
1194 1.0
1196 1.0
1198 1.0
1200 1.0
1202 1.0
1204 1.0
1206 1.0
1208 1.0
1210 1.0
1212 1.0
1214 1.0
1216 1.0
1218 1.0
1220 1.0
1222 1.0
1224 1.0
1226 1.0
1228 1.0
1230 1.0
1232 1.0
1234 1.0
1236 1.0
1238 1.0
1240 1.0
